33047
0 0 1 0 0 1 1 0 0 0 1 1 1 1 1 1 1 1 1 1 0 1 0 1 0 1 0 1 1 1 
18 19 21 27 2 12 15 27 18 28 29 28 13 13 28 18 13 10 27 27 18 16 5 2 10 18 27 19 29 2 19 19 19 16 27 6 14 13 16 16 18 14 6 29 13 19 13 21 19 14 27 16 2 16 13 6 11 14 18 25 29 2 18 10 13 11 5 14 28 25 18 12 19 14 23 23 10 23 13 16 10 17 14 25 29 13 6 5 27 25 28 6 25 25 2 13 11 6 17 28 28 15 25 18 29 2 29 27 27 13 19 29 27 12 12 13 28 25 17 10 14 11 17 19 19 16 2 11 19 17 28 21 25 10 23 14 23 10 28 10 12 27 11 11 25 5 16 15 27 25 2 17 23 17 10 11 2 15 10 23 23 28 10 21 5 18 5 29 23 21 5 10 19 14 29 21 17 14 29 14 5 21 21 6 12 10 28 23 17 21 2 21 6 29 25 12 25 15 23 6 
